results_rootrelaxation/bin024_050_013.srr.sol
solution status: optimal solution found
objective value:                                    0
_var1714_                           0.379408766094279 	(obj:0)
_var5021_                          0.0785869052675227 	(obj:0)
_var5431_                          0.0891149689276816 	(obj:0)
_var5583_                            0.33144007603852 	(obj:0)
_var6894_                          0.0317783838832194 	(obj:0)
_var6902_                          0.0658539759510603 	(obj:0)
_var6904_                           0.194318326003192 	(obj:0)
_var6909_                           0.126395431842056 	(obj:0)
_var6938_                           0.209598662188041 	(obj:0)
_var6941_                          0.0725896842517301 	(obj:0)
_var6944_                           0.228961269956081 	(obj:0)
_var6946_                           0.179521968547405 	(obj:0)
_var6949_                           0.168375883070331 	(obj:0)
_var6960_                           0.146900830001569 	(obj:0)
_var6966_                           0.172836197487354 	(obj:0)
_var6974_                           0.266728761003746 	(obj:0)
_var6975_                         0.00775394437696418 	(obj:0)
_var6992_                          0.0681568749426048 	(obj:0)
_var6994_                          0.0130207973227397 	(obj:0)
_var6997_                          0.0170890764342923 	(obj:0)
_var6999_                          0.0814248659057087 	(obj:0)
_var7002_                             0.2009063729187 	(obj:0)
_var7006_                          0.0484437296077257 	(obj:0)
_var7010_                            0.15982392522039 	(obj:0)
_var7012_                           0.151896941530659 	(obj:0)
_var7028_                           0.206871957038943 	(obj:0)
_var7037_                           0.223730452741105 	(obj:0)
_var7040_                          0.0857781138541111 	(obj:0)
_var7042_                           0.124054210440869 	(obj:0)
_var7043_                           0.140790772579909 	(obj:0)
_var7059_                          0.0675513353072306 	(obj:0)
_var7069_                          0.0707460870309299 	(obj:0)
_var7071_                           0.216983142694018 	(obj:0)
_var7077_                           0.249208491982428 	(obj:0)
_var7091_                           0.196404693462184 	(obj:0)
_var7099_                           0.119781489070235 	(obj:0)
_var7101_                           0.262506252941788 	(obj:0)
_var7109_                           0.136871800975619 	(obj:0)
_var7110_                          0.0589196302631441 	(obj:0)
_var7111_                           0.114232608042563 	(obj:0)
_var7120_                           0.178339708578295 	(obj:0)
_var7123_                          0.0149268322027681 	(obj:0)
_var7128_                           0.120522002700767 	(obj:0)
_var7129_                          0.0708366422003031 	(obj:0)
_var7134_                          0.0679898952933823 	(obj:0)
_var7135_                           0.200521183236056 	(obj:0)
_var7136_                          0.0288783750214407 	(obj:0)
_var7138_                          0.0694945981703143 	(obj:0)
_var7139_                          0.0283153728431672 	(obj:0)
_var7143_                           0.113300035733479 	(obj:0)
_var7145_                           0.198292095072217 	(obj:0)
_var7148_                            0.29738510072376 	(obj:0)
_var7152_                          0.0704912460092397 	(obj:0)
_var7160_                          0.0534516824568165 	(obj:0)
_var7162_                           0.108633718711697 	(obj:0)
_var7165_                           0.119844409036033 	(obj:0)
_var7169_                          0.0347836231390675 	(obj:0)
_var7174_                          0.0452721933363296 	(obj:0)
_var7176_                          0.0960328312206763 	(obj:0)
_var7177_                           0.201769050302293 	(obj:0)
_var7178_                           0.172884654435303 	(obj:0)
_var7179_                          0.0684474904460818 	(obj:0)
_var7180_                          0.0134093078918754 	(obj:0)
_var7182_                           0.189494565842226 	(obj:0)
_var7184_                           0.285744119817394 	(obj:0)
_var7187_                          0.0273391503241162 	(obj:0)
_var7192_                          0.0673222343342572 	(obj:0)
_var7195_                           0.255899925472534 	(obj:0)
_var7196_                          0.0647143985383311 	(obj:0)
_var7199_                           0.197371769165345 	(obj:0)
_var7202_                           0.193061488466692 	(obj:0)
_var7205_                          0.0482749402192852 	(obj:0)
_var7208_                          0.0768127011838525 	(obj:0)
_var7215_                         0.00432794040692965 	(obj:0)
_var7217_                          0.0534332433970618 	(obj:0)
_var7218_                          0.0256065803081673 	(obj:0)
_var7220_                           0.163643852065947 	(obj:0)
_var7221_                           0.121394112590245 	(obj:0)
_var7222_                           0.112667851885626 	(obj:0)
_var7224_                          0.0155074559553116 	(obj:0)
_var7225_                          0.0537843146301601 	(obj:0)
_var7228_                          0.0511070131226364 	(obj:0)
_var7230_                           0.030530564062267 	(obj:0)
_var7231_                           0.216603673038944 	(obj:0)
_var7233_                           0.135718641193452 	(obj:0)
_var7234_                           0.204785469507965 	(obj:0)
_var7235_                          0.0142250261074567 	(obj:0)
_var7236_                           0.043727634543513 	(obj:0)
_var7237_                            0.15730593960983 	(obj:0)
_var7239_                           0.027982915363112 	(obj:0)
_var7240_                           0.019253502094062 	(obj:0)
_var7241_                           0.120280055756954 	(obj:0)
_var7242_                          0.0879272904501069 	(obj:0)
_var7246_                          0.0395602609468882 	(obj:0)
_var7249_                           0.125066323124584 	(obj:0)
_var7250_                          0.0216346304679555 	(obj:0)
_var7251_                           0.289247204862349 	(obj:0)
_var7252_                          0.0450102204055772 	(obj:0)
_var7253_                          0.0228912174524668 	(obj:0)
_var7254_                           0.268969232207113 	(obj:0)
_var7255_                          0.0913808665396006 	(obj:0)
_var7256_                          0.0975513303856805 	(obj:0)
_var7259_                          0.0347694058555535 	(obj:0)
_var7260_                          0.0744341832542199 	(obj:0)
_var7261_                           0.122805746068645 	(obj:0)
_var7263_                           0.212304973430457 	(obj:0)
_var7265_                           0.181113828905164 	(obj:0)
_var7269_                          0.0951356703346998 	(obj:0)
_var7270_                          0.0880198067175328 	(obj:0)
_var7271_                          0.0621175326925635 	(obj:0)
_var7273_                          0.0322659618652921 	(obj:0)
_var7274_                          0.0270071720980938 	(obj:0)
_var7275_                           0.085014653362723 	(obj:0)
_var7276_                          0.0559412904493219 	(obj:0)
_var7278_                           0.142061942896527 	(obj:0)
_var7280_                          0.0332314688703247 	(obj:0)
_var7281_                           0.181822935725591 	(obj:0)
_var7282_                           0.100541450838252 	(obj:0)
_var7287_                           0.124295206703768 	(obj:0)
_var7292_                           0.147477293353993 	(obj:0)
_var7299_                           0.190980678663729 	(obj:0)
_var7301_                           0.252931637537207 	(obj:0)
_var7302_                           0.121489187329657 	(obj:0)
_var7303_                          0.0511538519657407 	(obj:0)
_var7304_                          0.0392396945603924 	(obj:0)
_var7307_                           0.140493758157975 	(obj:0)
_var7308_                          0.0841637857068585 	(obj:0)
_var7310_                           0.183765804477807 	(obj:0)
_var7311_                          0.0167134510855024 	(obj:0)
_var7312_                          0.0754704739151378 	(obj:0)
_var7313_                          0.0305103225192728 	(obj:0)
_var7314_                          0.0117100398199309 	(obj:0)
_var7316_                          0.0329215216271987 	(obj:0)
_var7319_                          0.0253826317612462 	(obj:0)
_var7320_                          0.0853484313742376 	(obj:0)
_var7321_                          0.0999525909824591 	(obj:0)
_var7323_                          0.0315250746096768 	(obj:0)
_var7325_                          0.0807241813466762 	(obj:0)
_var7328_                           0.212293582595684 	(obj:0)
_var7329_                            0.15114179276312 	(obj:0)
_var7330_                          0.0231033135811682 	(obj:0)
_var7331_                          0.0273603107789065 	(obj:0)
_var7334_                          0.0348699628938296 	(obj:0)
_var7336_                           0.228462261308902 	(obj:0)
_var7337_                           0.102027758676164 	(obj:0)
_var7338_                           0.116894981764875 	(obj:0)
_var7341_                           0.122322988466353 	(obj:0)
_var7343_                          0.0234454423831248 	(obj:0)
_var7347_                          0.0634818798387191 	(obj:0)
_var7348_                          0.0576638559719378 	(obj:0)
_var7349_                          0.0518461457714474 	(obj:0)
_var7355_                          0.0431198091746938 	(obj:0)
_var7357_                          0.0836408842967918 	(obj:0)
_var7358_                          0.0512794607359551 	(obj:0)
_var7359_                          0.0498771957087258 	(obj:0)
_var7361_                          0.0436755562132836 	(obj:0)
_var7362_                           0.224578611021919 	(obj:0)
_var7363_                         0.00491633568664716 	(obj:0)
_var7364_                           0.111823012795532 	(obj:0)
_var7366_                           0.118820971714048 	(obj:0)
_var7367_                           0.142301601913783 	(obj:0)
_var7369_                          0.0132719489720974 	(obj:0)
_var7370_                          0.0196498653642264 	(obj:0)
_var7371_                           0.104543710373542 	(obj:0)
_var7373_                          0.0902694480672062 	(obj:0)
_var7374_                          0.0906604064419719 	(obj:0)
_var7376_                           0.073551963540587 	(obj:0)
_var7377_                          0.0137486103088383 	(obj:0)
_var7378_                          0.0815971541240691 	(obj:0)
_var7379_                          0.0555710445499708 	(obj:0)
_var7380_                          0.0660767757622045 	(obj:0)
_var7381_                           0.116719055783584 	(obj:0)
_var7383_                           0.071923785873485 	(obj:0)
_var7384_                          0.0154879952528007 	(obj:0)
_var7385_                          0.0135660449879506 	(obj:0)
_var7386_                         0.00669453231735872 	(obj:0)
_var7387_                          0.0329131047745387 	(obj:0)
_var7389_                         0.00209979439724095 	(obj:0)
_var7390_                          0.0621187783608109 	(obj:0)
_var7391_                          0.0612634927024304 	(obj:0)
_var7395_                            0.11706691039276 	(obj:0)
_var7396_                          0.0770546589932805 	(obj:0)
_var7397_                           0.115346082865914 	(obj:0)
_var7399_                          0.0440547725355226 	(obj:0)
_var7400_                           0.102068355293371 	(obj:0)
_var7403_                          0.0240351294010209 	(obj:0)
_var7404_                          0.0395191088371122 	(obj:0)
_var7405_                          0.0484882282493507 	(obj:0)
_var7407_                           0.173065431148897 	(obj:0)
_var7408_                         0.00757164311024594 	(obj:0)
_var7409_                           0.117471568453853 	(obj:0)
_var7411_                          0.0326325898361332 	(obj:0)
_var7412_                          0.0731707418504608 	(obj:0)
_var7414_                         0.00597651137691272 	(obj:0)
_var7415_                         0.00532175983604157 	(obj:0)
_var7417_                           0.214362754435507 	(obj:0)
_var7419_                         0.000608563633557186 	(obj:0)
_var7420_                          0.0427743680673392 	(obj:0)
_var7421_                          0.0105548530680914 	(obj:0)
_var7422_                         0.00674789244289422 	(obj:0)
_var7428_                          0.0470360409706431 	(obj:0)
_var7429_                          0.0368225289400043 	(obj:0)
_var7430_                          0.0768966783180559 	(obj:0)
_var7431_                          0.0756930430769682 	(obj:0)
_var7432_                          0.0740298433971107 	(obj:0)
_var7433_                          0.0630015846539167 	(obj:0)
_var7434_                          0.0345643843714617 	(obj:0)
_var7436_                            0.11282034599586 	(obj:0)
_var7437_                           0.132288034191746 	(obj:0)
_var7438_                          0.0139679391664815 	(obj:0)
_var7442_                          0.0229598031068152 	(obj:0)
_var7443_                          0.0620661155359123 	(obj:0)
_var7445_                           0.122678242642288 	(obj:0)
_var7446_                          0.0058604190295039 	(obj:0)
_var7447_                          0.0431036388841054 	(obj:0)
_var7448_                           0.122784948282062 	(obj:0)
_var7449_                          0.0266221996631819 	(obj:0)
_var7450_                          0.0101607855414408 	(obj:0)
_var7451_                         0.00314458452443134 	(obj:0)
_var7452_                         0.00780622872979716 	(obj:0)
_var7453_                          0.0370325348527666 	(obj:0)
_var7455_                          0.0331073550663346 	(obj:0)
_var7456_                         0.00452884674650653 	(obj:0)
_var7457_                          0.0695672732394327 	(obj:0)
_var7458_                         0.00922252925524798 	(obj:0)
_var7460_                          0.0170964297171026 	(obj:0)
_var7461_                          0.0914311989874619 	(obj:0)
_var7462_                         0.00461244153294899 	(obj:0)
_var7466_                          0.0621031556627842 	(obj:0)
_var7467_                          0.0296297568740965 	(obj:0)
_var7468_                          0.0302643250927542 	(obj:0)
_var7470_                          0.0173889686996713 	(obj:0)
_var7471_                          0.0654296932006408 	(obj:0)
_var7472_                         0.000803710345285411 	(obj:0)
_var7475_                          0.0567206663802865 	(obj:0)
_var7477_                          0.0677325309640397 	(obj:0)
_var7480_                          0.0565955244851191 	(obj:0)
_var7481_                          0.0093842810360692 	(obj:0)
_var7486_                          0.0662410286428878 	(obj:0)
_var7488_                          0.0421875631587496 	(obj:0)
_var7489_                          0.0403732379837801 	(obj:0)
_var7492_                          0.0885669628177267 	(obj:0)
_var7494_                          0.0463667412480957 	(obj:0)
_var7495_                          0.0511774662860792 	(obj:0)
_var7496_                          0.0809004618204144 	(obj:0)
_var7497_                          0.0872484777414468 	(obj:0)
_var7498_                         0.00536928353215249 	(obj:0)
_var7499_                          0.0266095818020945 	(obj:0)
_var7501_                         0.00234925577940855 	(obj:0)
_var7502_                          0.0263397917666848 	(obj:0)
_var7507_                         0.00264702333509745 	(obj:0)
_var7508_                           0.007991850678052 	(obj:0)
_var7509_                          0.0811131464938388 	(obj:0)
_var7510_                            0.04266297836145 	(obj:0)
_var7511_                         0.00241689280386034 	(obj:0)
_var7513_                          0.0339147706411865 	(obj:0)
_var7514_                          0.0657308638727151 	(obj:0)
_var7518_                          0.0375717633544888 	(obj:0)
_var7521_                          0.0268292178688199 	(obj:0)
_var7522_                         0.00498722260659121 	(obj:0)
_var7524_                          0.0454341514681288 	(obj:0)
_var7526_                          0.0702757639053668 	(obj:0)
_var7529_                          0.0570469763653841 	(obj:0)
_var7532_                          0.0132530135027109 	(obj:0)
_var7534_                          0.0307037124923747 	(obj:0)
_var7538_                          0.0245239278381527 	(obj:0)
_var7543_                          0.0187804354363348 	(obj:0)
_var7544_                          0.0270391944177064 	(obj:0)
_var7545_                           0.021407743102767 	(obj:0)
_var7547_                          0.0221756493345103 	(obj:0)
_var7549_                          0.0319514468139899 	(obj:0)
_var7550_                          0.0367445924465755 	(obj:0)
_var7551_                          0.0429136618865538 	(obj:0)
_var7553_                          0.0161049252663162 	(obj:0)
_var7559_                           0.015346457458952 	(obj:0)
